NAME          
ROWS
 N  OBJ
 L  c1
 L  c2
COLUMNS
    MARKER    'MARKER'                 'INTORG'
    x[1]      c1        54
    x[1]      c2        485
    x[1]      OBJ       -834
    x[2]      c1        267
    x[2]      c2        260
    x[2]      OBJ       -721
    x[3]      c1        929
    x[3]      c2        360
    x[3]      OBJ       -393
    x[4]      c1        260
    x[4]      c2        854
    x[4]      OBJ       -992
    x[5]      c1        250
    x[5]      c2        285
    x[5]      OBJ       -166
    x[6]      c1        804
    x[6]      c2        138
    x[6]      OBJ       -565
    x[7]      c1        703
    x[7]      c2        520
    x[7]      OBJ       -39
    x[8]      c1        893
    x[8]      c2        394
    x[8]      OBJ       -590
    x[9]      c1        884
    x[9]      c2        33
    x[9]      OBJ       -40
    x[10]     c1        868
    x[10]     c2        72
    x[10]     OBJ       -309
    x[11]     c1        72
    x[11]     c2        652
    x[11]     OBJ       -699
    x[12]     c1        632
    x[12]     c2        936
    x[12]     OBJ       -109
    x[13]     c1        501
    x[13]     c2        953
    x[13]     OBJ       -376
    x[14]     c1        881
    x[14]     c2        496
    x[14]     OBJ       -657
    x[15]     c1        554
    x[15]     c2        191
    x[15]     OBJ       -630
    x[16]     c1        277
    x[16]     c2        327
    x[16]     OBJ       -570
    x[17]     c1        23
    x[17]     c2        584
    x[17]     OBJ       -590
    x[18]     c1        123
    x[18]     c2        672
    x[18]     OBJ       -743
    x[19]     c1        878
    x[19]     c2        542
    x[19]     OBJ       -342
    x[20]     c1        27
    x[20]     c2        820
    x[20]     OBJ       -227
RHS
    rhs       c1        4940
    rhs       c2        4787
RANGES
BOUNDS
 BV bounds    x[1]
 BV bounds    x[2]
 BV bounds    x[3]
 BV bounds    x[4]
 BV bounds    x[5]
 BV bounds    x[6]
 BV bounds    x[7]
 BV bounds    x[8]
 BV bounds    x[9]
 BV bounds    x[10]
 BV bounds    x[11]
 BV bounds    x[12]
 BV bounds    x[13]
 BV bounds    x[14]
 BV bounds    x[15]
 BV bounds    x[16]
 BV bounds    x[17]
 BV bounds    x[18]
 BV bounds    x[19]
 BV bounds    x[20]
ENDATA
